webassembly/ejemplos_dzn/folder13_json_41.dzn
TERM = { '.', 's(2)', 's(4)', 'in_1', 'local_0', 'local_1', 'in_2', 'in_4', 'in_3', 's(1)', 's(0)', 'in_5', 's(3)', 'in_0'};
null = '.';
s = 13;
n = 12;
ndeps = 4;
max_registers_sz = 5;
NR = 2;
registers = [|'local_0', 'in_1', |'local_1', 'in_4'|];
dependencies = [|'i32.load_0', 'i32.store8_2', |'i32.store8_2', 'i32.store16_4', |'i32.store16_4', 'i32.load8_u_10', |'i32.store16_4', 'i32.load8_s_12'|];
GET_ENUM = { GET1, GET2, GET3, GET4, GET5, GET6, GET7};
SET_ENUM = { SET1, SET2, SET3, SET4, SET5, SET6, SET7};
TEE_ENUM = { TEE1, TEE2, TEE3, TEE4, TEE5, TEE6, TEE7};
N = 7;
OP = { 'i32.load_0', 'i32.store8_2', 'i32.store16_4', 'i32.const_0', 'i32.load8_u_10', 'i32.sub_0', 'i32.load8_s_12' };
in_ops = [1, 2, 2, 0, 1, 2, 1 ];
out_ops = [1, 0, 0, 1, 1, 1, 1 ];
in1 = ['in_0', 'local_1', 'in_2', '.', 's(4)', 's(1)', 's(2)' ];
in2 = ['.', 's(0)', 'in_3', '.', '.', 'in_5', '.' ];
in3 = ['.', '.', '.', '.', '.', '.', '.' ];
out1 = ['s(0)', '.', '.', 's(4)', 's(1)', 's(2)', 's(3)' ];
out2 = ['.', '.', '.', '.', '.', '.', '.' ];
out3 = ['.', '.', '.', '.', '.', '.', '.' ];
comm = [false, false, false, false, false, false, false ];
gas = [1, 1, 1, 1, 1, 1, 1 ];
sz = [1, 1, 1, 1, 1, 1, 1 ];
stor = [false, true, true, false, false, false, false ];
lb = [ 1, 1, 1, 1, 1, 1, 1 ];
ub = [ 13, 13, 13, 13, 13, 13, 13 ];
startstack = [ 'in_0', 'in_1', 'in_2', 'in_3', 'in_4', 'in_5', null, null, null, null, null, null ];
endstack = [ 's(3)', null, null, null, null, null, null, null, null, null, null, null ];
