webassembly/ejemplos_results/folder13_json_41.txt
=====UNSATISFIABLE=====
% time elapsed: 0.93 s
